data/solutions/recovery/degenerate/moderate/flexible/degenerate_moderate_instance20/30.sol
Elapsed time: 2.9
Upper bound: 154367189.0
Planning weighted value: 2268342885.0
C[0]=154367189.0
C[1]=154297705.0
C[2]=154220744.0
C[3]=154064228.0
y[0]=2
y[1]=3
y[2]=0
y[3]=3
y[4]=2
y[5]=1
y[6]=0
y[7]=1
y[8]=3
y[9]=1
y[10]=3
y[11]=2
y[12]=1
y[13]=0
y[14]=3
y[15]=0
y[16]=0
y[17]=2
y[18]=1
y[19]=3
y[20]=0
y[21]=1
y[22]=2
y[23]=0
y[24]=0
y[25]=3
y[26]=0
y[27]=3
y[28]=3
y[29]=1
y[30]=0
y[31]=2
y[32]=2
y[33]=2
y[34]=3
y[35]=1
